peakDumbCharging = 11100; 
Machine = anon_enum(16); 
machineSpeed = [3700,3700,3700,3700,3700,3700,3700,3700,3700,3700,3700,3700,3700,3700,3700,3700]; 
machineLoad = [3700,3700,3700,3700,3700,3700,3700,3700,3700,3700,3700,3700,3700,3700,3700,3700]; 
Car = anon_enum(8); 
demandCar = [3240,21520,3800,4720,4480,21840,4280,3800]; 
arrivalCar = [75,73,73,72,60,58,46,45]; 
departureCar = [77,80,75,75,62,68,48,47]; 
